93 165
162 288
188 326
247 319
158 10
17 91
271 244
351 42
103 11
114 383
348 228
156 6
78 318
76 180
116 298
286 290
255 20
39 73
372 332
317 281
105 350
261 389
278 33
71 6
309 286
114 332
258 323
262 31
22 395
370 165
276 79
133 226
289 264
120 88
47 133
194 158
282 82
150 250
185 11
352 258
171 235
328 233
373 383
44 158
255 397
366 77
35 318
343 283
286 315
321 2
